n = 150;
m= 100 ;
c= [|20,72|83,36|59,69|92,42|47,81|25,1|26,17|72,78|95,11|53,38|90,1|50,86|85,12|40,39|48,6|72,79|89,69|71,55|3,48|20,50|35,95|86,24|86,87|31,42|25,62|40,69|0,13|39,75|87,37|37,16|30,72|57,0|56,69|28,6|58,63|63,73|81,2|65,90|16,3|20,81|6,93|51,4|35,27|80,24|92,54|72,80|72,35|100,76|55,34|74,42|55,29|25,66|21,80|42,71|100,69|25,37|49,94|90,19|54,41|18,25|6,87|69,21|30,7|91,60|93,83|1,93|61,66|94,60|48,37|11,10|31,19|54,13|57,81|75,91|59,90|40,54|89,33|75,79|43,82|49,18|85,66|42,99|9,32|88,51|55,45|37,8|33,76|79,76|98,61|64,92|96,55|57,28|55,45|63,7|37,93|22,17|59,76|12,51|7,42|13,33|];